unknown
(model
; cardinality of BoundSet is 1
(declare-sort BoundSet 0)
; rep: @uc_BoundSet_0
; cardinality of UnboundSet is 1
(declare-sort UnboundSet 0)
(declare-fun groundTerm_2 () UnboundSet)
(define-fun IsAtWarWith ((BOUND_VARIABLE_376 BoundSet)) Bool true)
(define-fun IsTheGreatest ((BOUND_VARIABLE_376 BoundSet)) Bool false)
(define-fun IsAmerican ((BOUND_VARIABLE_376 BoundSet)) Bool false)
(define-fun IsAxisPowers ((BOUND_VARIABLE_376 BoundSet)) Bool false)
)
sat
(model
; cardinality of BoundSet is 1
(declare-sort BoundSet 0)
; rep: @uc_BoundSet_0
; cardinality of UnboundSet is 1
(declare-sort UnboundSet 0)
(declare-fun groundTerm_4 () UnboundSet)
(define-fun IsAtWarWith ((BOUND_VARIABLE_397 BoundSet)) Bool true)
(define-fun IsTheGreatest ((BOUND_VARIABLE_397 BoundSet)) Bool false)
(define-fun IsAmerican ((BOUND_VARIABLE_397 BoundSet)) Bool false)
(define-fun IsAxisPowers ((BOUND_VARIABLE_397 BoundSet)) Bool false)
)
